20	38
0	6	94
0	7	45
0	8	19
0	9	91
0	10	99
0	12	34
1	3	82
1	4	84
1	5	19
1	7	77
1	13	94
1	14	65
1	18	23
2	8	68
2	15	52
3	8	95
3	9	46
3	15	14
3	19	26
4	8	10
4	16	31
4	17	52
4	19	98
5	13	38
5	16	88
5	17	17
6	15	69
6	17	71
6	19	49
7	8	19
10	16	30
11	16	64
11	19	92
14	18	4
14	19	49
15	19	52
17	18	77
18	19	41
